13
-1 95 89 24 59 52 43 96 17 58 87 97 27 
31 -1 88 79 20 45 66 49 36 49 56 85 100 
44 55 -1 45 69 47 71 41 91 44 17 93 49 
95 78 73 -1 35 54 44 18 9 81 19 70 34 
25 13 98 3 -1 3 16 20 9 15 15 12 72 
13 39 91 46 11 -1 76 22 83 41 77 31 14 
54 73 77 75 28 62 -1 5 71 14 74 1 69 
35 7 84 66 73 55 5 -1 32 43 17 77 46 
60 26 79 79 54 80 82 48 -1 66 74 95 35 
40 76 39 21 56 50 11 86 78 -1 31 33 56 
20 32 13 5 90 72 81 61 79 75 -1 45 59 
29 14 63 46 81 61 62 96 20 7 20 -1 30 
45 49 98 10 32 41 55 13 10 9 3 15 -1 
